n=14;
m=91;
E=[|11,9
|10,4
|9,1
|6,14
|4,11
|12,10
|10,11
|6,8
|7,1
|5,13
|14,8
|9,11
|2,11
|7,3
|3,13
|2,4
|11,6
|9,2
|14,11
|9,12
|8,9
|12,2
|12,1
|6,5
|2,6
|5,13
|8,7
|1,10
|3,5
|6,9
|9,8
|6,14
|2,6
|6,8
|11,12
|13,5
|4,12
|1,3
|3,12
|8,1
|14,6
|1,14
|2,5
|2,13
|3,13
|5,11
|9,13
|1,12
|11,7
|1,5
|12,2
|6,2
|9,8
|14,1
|1,10
|2,8
|13,9
|8,12
|5,11
|1,13
|5,13
|13,12
|4,1
|9,3
|8,3
|2,4
|14,3
|5,2
|3,8
|4,5
|2,7
|13,12
|8,10
|2,12
|1,13
|13,1
|12,6
|12,9
|5,9
|9,13
|4,5
|10,11
|3,13
|6,5
|8,10
|11,2
|10,1
|14,13
|8,13
|5,14
|11,9
|];

